branch-and-cut/resultados/B/b06.sol
# Objective value = 1.2199999999999991e+02
e[0,10] 0
e[10,0] 0
e[0,27] 1
e[27,0] 1
e[0,31] 0
e[31,0] 0
e[0,43] 0
e[43,0] 0
e[1,3] 0
e[3,1] 0
e[1,9] 0
e[9,1] 0
e[1,30] 0
e[30,1] 0
e[1,35] 0
e[35,1] 0
e[2,23] 0
e[23,2] 0
e[2,29] 0
e[29,2] 0
e[2,47] 0
e[47,2] 0
e[3,6] 0
e[6,3] 0
e[3,8] 0
e[8,3] 0
e[3,27] 0
e[27,3] 0
e[3,35] 1
e[35,3] 1
e[4,19] 1
e[19,4] 1
e[5,12] 1
e[12,5] 1
e[5,22] 0
e[22,5] 0
e[5,27] 1
e[27,5] 1
e[6,12] 1
e[12,6] 1
e[7,3] 0
e[3,7] 0
e[7,6] 0
e[6,7] 0
e[7,12] 0
e[12,7] 0
e[8,5] 1
e[5,8] 1
e[8,16] 1
e[16,8] 1
e[8,48] 0
e[48,8] 0
e[9,41] 0
e[41,9] 0
e[10,17] 1
e[17,10] 1
e[11,2] 0
e[2,11] 0
e[11,39] 1
e[39,11] 1
e[12,36] 0
e[36,12] 0
e[13,26] 1
e[26,13] 1
e[13,47] 0
e[47,13] 0
e[14,34] 0
e[34,14] 0
e[15,13] 1
e[13,15] 1
e[16,14] 0
e[14,16] 0
e[18,6] 0
e[6,18] 0
e[18,23] 1
e[23,18] 1
e[21,1] 0
e[1,21] 0
e[21,11] 0
e[11,21] 0
e[21,26] 0
e[26,21] 0
e[21,40] 0
e[40,21] 0
e[21,46] 0
e[46,21] 0
e[23,35] 9.9999999999998990e-01
e[35,23] 9.9999999999998990e-01
e[23,41] 1
e[41,23] 1
e[24,2] 0
e[2,24] 0
e[24,3] 0
e[3,24] 0
e[25,40] 0
e[40,25] 0
e[26,5] 9.9999999999998990e-01
e[5,26] 9.9999999999998990e-01
e[26,20] 1
e[20,26] 1
e[26,48] 1
e[48,26] 1
e[27,44] 0
e[44,27] 0
e[28,0] 0
e[0,28] 0
e[28,10] 0
e[10,28] 0
e[28,21] 0
e[21,28] 0
e[28,32] 0
e[32,28] 0
e[28,36] 0
e[36,28] 0
e[28,49] 0
e[49,28] 0
e[29,46] 1
e[46,29] 1
e[30,19] 1
e[19,30] 1
e[31,7] 0
e[7,31] 0
e[31,37] 1
e[37,31] 1
e[31,43] 1
e[43,31] 1
e[32,5] 0
e[5,32] 0
e[32,9] 0
e[9,32] 0
e[32,14] 0
e[14,32] 0
e[32,19] 0
e[19,32] 0
e[32,25] 0
e[25,32] 0
e[32,33] 0
e[33,32] 0
e[32,40] 0
e[40,32] 0
e[33,4] 0
e[4,33] 0
e[34,22] 1
e[22,34] 1
e[34,43] 1
e[43,34] 1
e[35,15] 1.0000000000000089e+00
e[15,35] 1.0000000000000089e+00
e[37,9] 0
e[9,37] 0
e[37,36] 0
e[36,37] 0
e[39,12] 0
e[12,39] 0
e[39,34] 1
e[34,39] 1
e[40,9] 1
e[9,40] 1
e[40,13] 1
e[13,40] 1
e[40,17] 1
e[17,40] 1
e[41,1] 0
e[1,41] 0
e[41,30] 1
e[30,41] 1
e[41,32] 0
e[32,41] 0
e[41,45] 0
e[45,41] 0
e[42,29] 1
e[29,42] 1
e[43,7] 0
e[7,43] 0
e[43,18] 0
e[18,43] 0
e[43,24] 0
e[24,43] 0
e[43,40] 0
e[40,43] 0
e[44,7] 0
e[7,44] 0
e[44,17] 0
e[17,44] 0
e[44,36] 0
e[36,44] 0
e[47,15] 1
e[15,47] 1
e[47,38] 0
e[38,47] 0
e[48,11] 1
e[11,48] 1
e[48,15] 0
e[15,48] 0
e[48,42] 1
e[42,48] 1
e[49,3] 1.0000000000000087e+00
e[3,49] 1.0000000000000087e+00
e[49,45] 1
e[45,49] 1
